job_count = 34 ;
duration = [|18, 3|10, 4|15, 6|10, 2|18, 7|12, 1|2, 1|6, 5|8, 7|18, 1|2, 4|15, 6|4, 6|4, 8|3, 4|14, 4|12, 7|18, 1|13, 6|2, 4|6, 7|15, 6|15, 8|18, 6|10, 8|8, 8|2, 5|7, 8|3, 9|13, 7|18, 6|2, 6|6, 6|16, 4|] ;
machine_count = 2 ;
cost = [|19, 25|12, 22|13, 24|12, 20|15, 26|13, 20|12, 20|17, 22|11, 28|11, 39|18, 32|10, 25|19, 28|19, 20|11, 22|10, 29|12, 22|12, 26|13, 37|11, 34|10, 29|12, 30|11, 29|17, 31|18, 33|11, 38|17, 24|14, 39|11, 26|14, 23|12, 36|16, 27|19, 27|14, 37|] ;
deadline = [85, 85, 85, 85, 85, 85, 85, 85, 85, 85, 85, 85, 85, 85, 85, 85, 85, 85, 85, 85, 85, 85, 85, 85, 85, 85, 85, 85, 85, 85, 85, 85, 85, 85] ;
release = [0, 0, 0, 0, 0, 0, 0, 0, 0, 0, 0, 0, 0, 0, 0, 0, 0, 0, 0, 0, 0, 0, 0, 0, 0, 0, 0, 0, 0, 0, 0, 0, 0, 0] ;
resource = [|7, 7|1, 1|1, 1|6, 6|7, 7|8, 8|3, 3|8, 8|6, 6|2, 2|2, 2|6, 6|2, 2|7, 7|1, 1|2, 2|4, 4|8, 8|3, 3|5, 5|8, 8|7, 7|1, 1|1, 1|2, 2|9, 9|7, 7|4, 4|7, 7|7, 7|3, 3|3, 3|5, 5|2, 2|] ;
capacities = [10, 10] ;
